p cnf 47 136
a 8 10 0
e 1 2 3 4 5 6 7 9 11 12 13 14 15 16 17 18 19 20 21 22 23 24 25 26 27 28 29 30 31 32 33 34 35 36 37 38 39 40 41 42 43 44 45 46 47 0
3 -1 0
3 2 0
1 -2 -3 0
5 -3 0
5 4 0
3 -4 -5 0
6 -2 0
6 -2 0
2 -6 0
7 6 0
7 1 0
-6 -1 -7 0
-8 -5 0
-8 -7 0
5 7 8 0
9 -8 0
9 5 0
8 -5 -9 0
-11 -2 0
-11 -10 0
2 10 11 0
13 -12 0
13 -1 0
12 1 -13 0
-14 -11 0
-14 13 0
11 -13 14 0
9 14 -15 0
-9 -14 -15 0
9 -14 15 0
-9 14 15 0
-17 -16 0
-17 2 0
16 -2 17 0
-18 10 0
-18 16 0
-10 -16 18 0
19 18 0
19 16 0
-18 -16 -19 0
-20 4 0
-20 19 0
-4 -19 20 0
21 17 0
21 -20 0
-17 20 -21 0
-1 18 -22 0
1 -18 -22 0
-1 -18 22 0
1 18 22 0
-23 -21 0
-23 22 0
21 -22 23 0
4 2 -25 0
-4 -2 -25 0
4 -2 25 0
-4 2 25 0
26 -24 0
26 -25 0
24 25 -26 0
28 27 0
28 -16 0
-27 16 -28 0
-29 26 0
-29 -28 0
-26 28 29 0
30 16 0
30 1 0
-16 -1 -30 0
6 27 -31 0
-6 -27 -31 0
6 -27 31 0
-6 27 31 0
32 30 0
32 31 0
-30 -31 -32 0
-16 -33 0
16 -33 0
-34 -33 0
-34 -2 0
33 2 34 0
35 32 0
35 34 0
-32 -34 -35 0
-36 29 0
-36 -35 0
-29 35 36 0
-16 1 -37 0
16 -1 -37 0
-16 -1 37 0
16 1 37 0
-38 -37 0
-38 -19 0
37 19 38 0
39 -7 0
39 -38 0
7 38 -39 0
40 -2 0
40 7 0
2 -7 -40 0
41 -39 0
41 -40 0
39 40 -41 0
42 -36 0
42 -41 0
36 41 -42 0
-43 -30 0
-43 18 0
30 -18 43 0
-44 -43 0
-44 -7 0
43 7 44 0
42 44 -45 0
-42 -44 -45 0
42 -44 45 0
-42 44 45 0
23 45 -46 0
-23 -45 -46 0
23 -45 46 0
-23 45 46 0
-47 15 0
-47 46 0
-15 -46 47 0
20 32 0
-12 16 -47 11 0
27 -34 16 -28 -31 0
-3 -32 -31 38 -13 0
25 18 8 0
-39 -2 -6 -42 32 -34 43 37 0
41 -40 28 -47 -14 0
-43 -41 10 24 16 -8 15 0
-38 -33 -31 43 20 0
13 20 -12 11 -44 0
45 -27 28 -11 -20 -4 1 0
-21 -28 6 -15 8 0
47 0
